p cnf 567 1950
e 567 1 566 0
a 131 0
e 160 565 3 2 162 564 0
a 132 0
e 163 563 15 14 13 12 11 10 9 8 7 6 5 4 170 171 562 0
a 133 134 135 0
e 179 561 35 34 33 32 31 30 29 28 27 26 25 24 23 22 21 20 19 18 17 16 187 190 193 196 199 202 205 207 209 211 213 214 560 0
a 136 137 138 139 0
e 223 559 55 54 53 52 51 50 49 48 47 46 45 44 43 42 41 40 39 38 37 36 226 234 237 240 243 246 249 252 255 258 260 263 266 268 270 272 274 275 558 0
a 140 141 142 143 0
e 284 557 75 74 73 72 71 70 69 68 67 66 65 64 63 62 61 60 59 58 57 56 287 295 298 301 304 307 310 313 316 319 321 324 327 329 331 333 335 336 556 0
a 144 145 146 147 0
e 345 555 95 94 93 92 91 90 89 88 87 86 85 84 83 82 81 80 79 78 77 76 348 356 359 362 365 368 371 374 377 380 382 385 388 390 392 394 396 397 554 0
a 148 149 150 151 0
e 406 553 114 113 112 111 110 109 108 107 106 105 104 103 102 101 100 99 98 97 96 409 417 420 423 426 429 432 435 438 441 443 446 449 452 454 456 458 459 552 0
a 152 153 154 155 0
e 468 551 123 122 121 120 119 118 117 116 115 471 474 477 480 483 486 489 492 495 497 500 503 505 507 509 511 512 550 0
a 156 157 0
e 515 549 128 127 126 125 124 518 521 524 527 530 532 534 535 548 0
a 158 159 0
e 538 547 130 129 539 542 544 546 545 543 541 540 536 537 533 531 529 528 526 525 523 522 520 519 517 516 513 514 510 508 506 504 501 502 498 499 496 494 493 491 490 488 487 485 484 482 481 479 478 476 475 473 472 470 469 460 461 462 463 464 465 466 467 457 455 453 450 451 447 448 444 445 442 440 439 437 436 434 433 431 430 428 427 425 424 422 421 419 418 411 416 412 413 414 415 410 408 407 398 399 400 401 402 403 404 405 395 393 391 389 386 387 383 384 381 379 378 376 375 373 372 370 369 367 366 364 363 361 360 358 357 350 355 351 352 353 354 349 347 346 337 338 339 340 341 342 343 344 334 332 330 328 325 326 322 323 320 318 317 315 314 312 311 309 308 306 305 303 302 300 299 297 296 289 294 290 291 292 293 288 286 285 276 277 278 279 280 281 282 283 273 271 269 267 264 265 261 262 259 257 256 254 253 251 250 248 247 245 244 242 241 239 238 236 235 228 233 229 230 231 232 227 225 224 215 216 217 218 219 220 221 222 212 210 208 206 203 204 200 201 198 197 195 194 192 191 189 188 181 186 182 183 184 185 180 172 173 174 175 176 177 178 164 169 165 166 167 168 161 0
567 0
567 -566 -1 0
566 -567 0
1 -567 0
160 565 -566 0
566 -160 0
566 -565 0
-160 -131 -1 0
131 160 0
1 160 0
565 -162 -564 0
162 -565 0
564 -565 0
161 -162 -131 0
131 162 0
162 -161 0
161 -3 -2 0
3 -161 0
2 -161 0
2 -161 0
2 -161 0
2 -161 0
2 -161 0
2 -161 0
163 563 -564 0
564 -163 0
564 -563 0
-163 -132 -2 0
132 163 0
2 163 0
563 -170 -171 -562 0
170 -563 0
171 -563 0
562 -563 0
164 169 -170 0
170 -164 0
170 -169 0
-164 -3 -2 0
3 164 0
2 164 0
169 -15 -165 -166 -7 -167 -168 -10 0
15 -169 0
165 -169 0
166 -169 0
7 -169 0
167 -169 0
168 -169 0
10 -169 0
9 12 -165 0
165 -9 0
165 -12 0
8 13 -166 0
166 -8 0
166 -13 0
5 11 -167 0
167 -5 0
167 -11 0
6 14 -168 0
168 -6 0
168 -14 0
4 -171 -132 0
132 171 0
171 -4 0
179 561 -562 0
562 -179 0
562 -561 0
179 -172 -173 -174 -175 -176 -177 -178 0
172 -179 0
173 -179 0
174 -179 0
175 -179 0
176 -179 0
177 -179 0
178 -179 0
134 135 -172 -10 -133 0
10 172 0
133 172 0
172 -134 0
172 -135 0
133 135 -173 -9 -134 0
9 173 0
173 -133 0
134 173 0
173 -135 0
135 -174 -8 -133 -134 0
8 174 0
133 174 0
134 174 0
174 -135 0
133 134 -175 -7 -135 0
7 175 0
175 -133 0
175 -134 0
135 175 0
134 -176 -6 -133 -135 0
6 176 0
133 176 0
176 -134 0
135 176 0
133 -177 -5 -134 -135 0
5 177 0
177 -133 0
134 177 0
135 177 0
-178 -4 -133 -134 -135 0
4 178 0
133 178 0
134 178 0
135 178 0
561 -187 -190 -193 -196 -199 -202 -205 -207 -209 -211 -213 -214 -560 0
187 -561 0
190 -561 0
193 -561 0
196 -561 0
199 -561 0
202 -561 0
205 -561 0
207 -561 0
209 -561 0
211 -561 0
213 -561 0
214 -561 0
560 -561 0
181 186 -187 0
187 -181 0
187 -186 0
180 -181 -15 0
15 181 0
181 -180 0
180 10 9 8 7 6 5 4 0
-10 -180 0
-9 -180 0
-8 -180 0
-7 -180 0
-6 -180 0
-5 -180 0
-4 -180 0
186 -32 -182 -183 -19 -184 -185 -23 0
32 -186 0
182 -186 0
183 -186 0
19 -186 0
184 -186 0
185 -186 0
23 -186 0
21 26 -182 0
182 -21 0
182 -26 0
20 27 -183 0
183 -20 0
183 -27 0
17 25 -184 0
184 -17 0
184 -25 0
18 28 -185 0
185 -18 0
185 -28 0
189 33 -190 0
190 -189 0
190 -33 0
188 -189 -14 0
14 189 0
189 -188 0
188 10 9 8 7 6 5 4 0
-10 -188 0
-9 -188 0
-8 -188 0
-7 -188 0
-6 -188 0
-5 -188 0
-4 -188 0
192 31 -193 0
193 -192 0
193 -31 0
191 -192 -13 0
13 192 0
192 -191 0
191 10 9 8 7 6 5 4 0
-10 -191 0
-9 -191 0
-8 -191 0
-7 -191 0
-6 -191 0
-5 -191 0
-4 -191 0
195 30 -196 0
196 -195 0
196 -30 0
194 -195 -12 0
12 195 0
195 -194 0
194 10 9 8 7 6 5 4 0
-10 -194 0
-9 -194 0
-8 -194 0
-7 -194 0
-6 -194 0
-5 -194 0
-4 -194 0
198 24 -199 0
199 -198 0
199 -24 0
197 -198 -11 0
11 198 0
198 -197 0
197 10 9 8 7 6 5 4 0
-10 -197 0
-9 -197 0
-8 -197 0
-7 -197 0
-6 -197 0
-5 -197 0
-4 -197 0
200 201 -202 0
202 -200 0
202 -201 0
133 135 -200 -134 0
200 -133 0
134 200 0
200 -135 0
201 -33 -34 0
33 -201 0
34 -201 0
203 204 -205 0
205 -203 0
205 -204 0
135 -203 -133 -134 0
133 203 0
134 203 0
203 -135 0
204 -22 -34 0
22 -204 0
34 -204 0
206 34 35 -207 0
207 -206 0
207 -34 0
207 -35 0
133 134 -206 -135 0
206 -133 0
206 -134 0
135 206 0
208 34 -209 0
209 -208 0
209 -34 0
134 -208 -133 -135 0
133 208 0
208 -134 0
135 208 0
210 29 -211 0
211 -210 0
211 -29 0
133 -210 -134 -135 0
210 -133 0
134 210 0
135 210 0
212 16 -213 0
213 -212 0
213 -16 0
-212 -133 -134 -135 0
133 212 0
134 212 0
135 212 0
-214 -34 -35 0
34 214 0
35 214 0
223 559 -560 0
560 -223 0
560 -559 0
223 -215 -216 -217 -218 -219 -220 -221 -222 0
215 -223 0
216 -223 0
217 -223 0
218 -223 0
219 -223 0
220 -223 0
221 -223 0
222 -223 0
136 137 138 -215 -23 -139 0
23 215 0
215 -136 0
215 -137 0
215 -138 0
139 215 0
137 138 -216 -22 -136 -139 0
22 216 0
136 216 0
216 -137 0
216 -138 0
139 216 0
136 138 -217 -21 -137 -139 0
21 217 0
217 -136 0
137 217 0
217 -138 0
139 217 0
138 -218 -20 -136 -137 -139 0
20 218 0
136 218 0
137 218 0
218 -138 0
139 218 0
136 137 -219 -19 -138 -139 0
19 219 0
219 -136 0
219 -137 0
138 219 0
139 219 0
137 -220 -18 -136 -138 -139 0
18 220 0
136 220 0
220 -137 0
138 220 0
139 220 0
136 -221 -17 -137 -138 -139 0
17 221 0
221 -136 0
137 221 0
138 221 0
139 221 0
-222 -16 -136 -137 -138 -139 0
16 222 0
136 222 0
137 222 0
138 222 0
139 222 0
559 -226 -234 -237 -240 -243 -246 -249 -252 -255 -258 -260 -263 -266 -268 -270 -272 -274 -275 -558 0
226 -559 0
234 -559 0
237 -559 0
240 -559 0
243 -559 0
246 -559 0
249 -559 0
252 -559 0
255 -559 0
258 -559 0
260 -559 0
263 -559 0
266 -559 0
268 -559 0
270 -559 0
272 -559 0
274 -559 0
275 -559 0
558 -559 0
225 55 -226 0
226 -225 0
226 -55 0
224 -225 -33 0
33 225 0
225 -224 0
224 23 22 21 20 19 18 17 16 0
-23 -224 0
-22 -224 0
-21 -224 0
-20 -224 0
-19 -224 0
-18 -224 0
-17 -224 0
-16 -224 0
228 233 -234 0
234 -228 0
234 -233 0
227 -228 -32 0
32 228 0
228 -227 0
227 23 22 21 20 19 18 17 16 0
-23 -227 0
-22 -227 0
-21 -227 0
-20 -227 0
-19 -227 0
-18 -227 0
-17 -227 0
-16 -227 0
233 -52 -229 -230 -39 -231 -232 -43 0
52 -233 0
229 -233 0
230 -233 0
39 -233 0
231 -233 0
232 -233 0
43 -233 0
41 46 -229 0
229 -41 0
229 -46 0
40 47 -230 0
230 -40 0
230 -47 0
37 45 -231 0
231 -37 0
231 -45 0
38 48 -232 0
232 -38 0
232 -48 0
236 49 55 -237 0
237 -236 0
237 -49 0
237 -55 0
235 -236 -31 0
31 236 0
236 -235 0
235 23 22 21 20 19 18 17 16 0
-23 -235 0
-22 -235 0
-21 -235 0
-20 -235 0
-19 -235 0
-18 -235 0
-17 -235 0
-16 -235 0
239 38 55 -240 0
240 -239 0
240 -38 0
240 -55 0
238 -239 -30 0
30 239 0
239 -238 0
238 23 22 21 20 19 18 17 16 0
-23 -238 0
-22 -238 0
-21 -238 0
-20 -238 0
-19 -238 0
-18 -238 0
-17 -238 0
-16 -238 0
242 54 -243 0
243 -242 0
243 -54 0
241 -242 -29 0
29 242 0
242 -241 0
241 23 22 21 20 19 18 17 16 0
-23 -241 0
-22 -241 0
-21 -241 0
-20 -241 0
-19 -241 0
-18 -241 0
-17 -241 0
-16 -241 0
245 53 -246 0
246 -245 0
246 -53 0
244 -245 -28 0
28 245 0
245 -244 0
244 23 22 21 20 19 18 17 16 0
-23 -244 0
-22 -244 0
-21 -244 0
-20 -244 0
-19 -244 0
-18 -244 0
-17 -244 0
-16 -244 0
248 51 -249 0
249 -248 0
249 -51 0
247 -248 -27 0
27 248 0
248 -247 0
247 23 22 21 20 19 18 17 16 0
-23 -247 0
-22 -247 0
-21 -247 0
-20 -247 0
-19 -247 0
-18 -247 0
-17 -247 0
-16 -247 0
251 50 -252 0
252 -251 0
252 -50 0
250 -251 -26 0
26 251 0
251 -250 0
250 23 22 21 20 19 18 17 16 0
-23 -250 0
-22 -250 0
-21 -250 0
-20 -250 0
-19 -250 0
-18 -250 0
-17 -250 0
-16 -250 0
254 44 -255 0
255 -254 0
255 -44 0
253 -254 -25 0
25 254 0
254 -253 0
253 23 22 21 20 19 18 17 16 0
-23 -253 0
-22 -253 0
-21 -253 0
-20 -253 0
-19 -253 0
-18 -253 0
-17 -253 0
-16 -253 0
257 42 -258 0
258 -257 0
258 -42 0
256 -257 -24 0
24 257 0
257 -256 0
256 23 22 21 20 19 18 17 16 0
-23 -256 0
-22 -256 0
-21 -256 0
-20 -256 0
-19 -256 0
-18 -256 0
-17 -256 0
-16 -256 0
259 55 -260 0
260 -259 0
260 -55 0
137 138 -259 -136 -139 0
136 259 0
259 -137 0
259 -138 0
139 259 0
261 262 -263 0
263 -261 0
263 -262 0
136 138 -261 -137 -139 0
261 -136 0
137 261 0
261 -138 0
139 261 0
262 -53 -54 0
53 -262 0
54 -262 0
264 265 -266 0
266 -264 0
266 -265 0
138 -264 -136 -137 -139 0
136 264 0
137 264 0
264 -138 0
139 264 0
265 -42 -54 0
42 -265 0
54 -265 0
267 54 55 -268 0
268 -267 0
268 -54 0
268 -55 0
136 137 -267 -138 -139 0
267 -136 0
267 -137 0
138 267 0
139 267 0
269 54 -270 0
270 -269 0
270 -54 0
137 -269 -136 -138 -139 0
136 269 0
269 -137 0
138 269 0
139 269 0
271 49 -272 0
272 -271 0
272 -49 0
136 -271 -137 -138 -139 0
271 -136 0
137 271 0
138 271 0
139 271 0
273 36 -274 0
274 -273 0
274 -36 0
-273 -136 -137 -138 -139 0
136 273 0
137 273 0
138 273 0
139 273 0
-275 -54 -55 0
54 275 0
55 275 0
284 557 -558 0
558 -284 0
558 -557 0
284 -276 -277 -278 -279 -280 -281 -282 -283 0
276 -284 0
277 -284 0
278 -284 0
279 -284 0
280 -284 0
281 -284 0
282 -284 0
283 -284 0
140 141 142 -276 -43 -143 0
43 276 0
276 -140 0
276 -141 0
276 -142 0
143 276 0
141 142 -277 -42 -140 -143 0
42 277 0
140 277 0
277 -141 0
277 -142 0
143 277 0
140 142 -278 -41 -141 -143 0
41 278 0
278 -140 0
141 278 0
278 -142 0
143 278 0
142 -279 -40 -140 -141 -143 0
40 279 0
140 279 0
141 279 0
279 -142 0
143 279 0
140 141 -280 -39 -142 -143 0
39 280 0
280 -140 0
280 -141 0
142 280 0
143 280 0
141 -281 -38 -140 -142 -143 0
38 281 0
140 281 0
281 -141 0
142 281 0
143 281 0
140 -282 -37 -141 -142 -143 0
37 282 0
282 -140 0
141 282 0
142 282 0
143 282 0
-283 -36 -140 -141 -142 -143 0
36 283 0
140 283 0
141 283 0
142 283 0
143 283 0
557 -287 -295 -298 -301 -304 -307 -310 -313 -316 -319 -321 -324 -327 -329 -331 -333 -335 -336 -556 0
287 -557 0
295 -557 0
298 -557 0
301 -557 0
304 -557 0
307 -557 0
310 -557 0
313 -557 0
316 -557 0
319 -557 0
321 -557 0
324 -557 0
327 -557 0
329 -557 0
331 -557 0
333 -557 0
335 -557 0
336 -557 0
556 -557 0
286 75 -287 0
287 -286 0
287 -75 0
285 -286 -53 0
53 286 0
286 -285 0
285 43 42 41 40 39 38 37 36 0
-43 -285 0
-42 -285 0
-41 -285 0
-40 -285 0
-39 -285 0
-38 -285 0
-37 -285 0
-36 -285 0
289 294 -295 0
295 -289 0
295 -294 0
288 -289 -52 0
52 289 0
289 -288 0
288 43 42 41 40 39 38 37 36 0
-43 -288 0
-42 -288 0
-41 -288 0
-40 -288 0
-39 -288 0
-38 -288 0
-37 -288 0
-36 -288 0
294 -72 -290 -291 -59 -292 -293 -63 0
72 -294 0
290 -294 0
291 -294 0
59 -294 0
292 -294 0
293 -294 0
63 -294 0
61 66 -290 0
290 -61 0
290 -66 0
60 67 -291 0
291 -60 0
291 -67 0
57 65 -292 0
292 -57 0
292 -65 0
58 68 -293 0
293 -58 0
293 -68 0
297 69 75 -298 0
298 -297 0
298 -69 0
298 -75 0
296 -297 -51 0
51 297 0
297 -296 0
296 43 42 41 40 39 38 37 36 0
-43 -296 0
-42 -296 0
-41 -296 0
-40 -296 0
-39 -296 0
-38 -296 0
-37 -296 0
-36 -296 0
300 58 75 -301 0
301 -300 0
301 -58 0
301 -75 0
299 -300 -50 0
50 300 0
300 -299 0
299 43 42 41 40 39 38 37 36 0
-43 -299 0
-42 -299 0
-41 -299 0
-40 -299 0
-39 -299 0
-38 -299 0
-37 -299 0
-36 -299 0
303 74 -304 0
304 -303 0
304 -74 0
302 -303 -49 0
49 303 0
303 -302 0
302 43 42 41 40 39 38 37 36 0
-43 -302 0
-42 -302 0
-41 -302 0
-40 -302 0
-39 -302 0
-38 -302 0
-37 -302 0
-36 -302 0
306 73 -307 0
307 -306 0
307 -73 0
305 -306 -48 0
48 306 0
306 -305 0
305 43 42 41 40 39 38 37 36 0
-43 -305 0
-42 -305 0
-41 -305 0
-40 -305 0
-39 -305 0
-38 -305 0
-37 -305 0
-36 -305 0
309 71 -310 0
310 -309 0
310 -71 0
308 -309 -47 0
47 309 0
309 -308 0
308 43 42 41 40 39 38 37 36 0
-43 -308 0
-42 -308 0
-41 -308 0
-40 -308 0
-39 -308 0
-38 -308 0
-37 -308 0
-36 -308 0
312 70 -313 0
313 -312 0
313 -70 0
311 -312 -46 0
46 312 0
312 -311 0
311 43 42 41 40 39 38 37 36 0
-43 -311 0
-42 -311 0
-41 -311 0
-40 -311 0
-39 -311 0
-38 -311 0
-37 -311 0
-36 -311 0
315 64 -316 0
316 -315 0
316 -64 0
314 -315 -45 0
45 315 0
315 -314 0
314 43 42 41 40 39 38 37 36 0
-43 -314 0
-42 -314 0
-41 -314 0
-40 -314 0
-39 -314 0
-38 -314 0
-37 -314 0
-36 -314 0
318 62 -319 0
319 -318 0
319 -62 0
317 -318 -44 0
44 318 0
318 -317 0
317 43 42 41 40 39 38 37 36 0
-43 -317 0
-42 -317 0
-41 -317 0
-40 -317 0
-39 -317 0
-38 -317 0
-37 -317 0
-36 -317 0
320 75 -321 0
321 -320 0
321 -75 0
141 142 -320 -140 -143 0
140 320 0
320 -141 0
320 -142 0
143 320 0
322 323 -324 0
324 -322 0
324 -323 0
140 142 -322 -141 -143 0
322 -140 0
141 322 0
322 -142 0
143 322 0
323 -73 -74 0
73 -323 0
74 -323 0
325 326 -327 0
327 -325 0
327 -326 0
142 -325 -140 -141 -143 0
140 325 0
141 325 0
325 -142 0
143 325 0
326 -62 -74 0
62 -326 0
74 -326 0
328 74 75 -329 0
329 -328 0
329 -74 0
329 -75 0
140 141 -328 -142 -143 0
328 -140 0
328 -141 0
142 328 0
143 328 0
330 74 -331 0
331 -330 0
331 -74 0
141 -330 -140 -142 -143 0
140 330 0
330 -141 0
142 330 0
143 330 0
332 69 -333 0
333 -332 0
333 -69 0
140 -332 -141 -142 -143 0
332 -140 0
141 332 0
142 332 0
143 332 0
334 56 -335 0
335 -334 0
335 -56 0
-334 -140 -141 -142 -143 0
140 334 0
141 334 0
142 334 0
143 334 0
-336 -74 -75 0
74 336 0
75 336 0
345 555 -556 0
556 -345 0
556 -555 0
345 -337 -338 -339 -340 -341 -342 -343 -344 0
337 -345 0
338 -345 0
339 -345 0
340 -345 0
341 -345 0
342 -345 0
343 -345 0
344 -345 0
144 145 146 -337 -63 -147 0
63 337 0
337 -144 0
337 -145 0
337 -146 0
147 337 0
145 146 -338 -62 -144 -147 0
62 338 0
144 338 0
338 -145 0
338 -146 0
147 338 0
144 146 -339 -61 -145 -147 0
61 339 0
339 -144 0
145 339 0
339 -146 0
147 339 0
146 -340 -60 -144 -145 -147 0
60 340 0
144 340 0
145 340 0
340 -146 0
147 340 0
144 145 -341 -59 -146 -147 0
59 341 0
341 -144 0
341 -145 0
146 341 0
147 341 0
145 -342 -58 -144 -146 -147 0
58 342 0
144 342 0
342 -145 0
146 342 0
147 342 0
144 -343 -57 -145 -146 -147 0
57 343 0
343 -144 0
145 343 0
146 343 0
147 343 0
-344 -56 -144 -145 -146 -147 0
56 344 0
144 344 0
145 344 0
146 344 0
147 344 0
555 -348 -356 -359 -362 -365 -368 -371 -374 -377 -380 -382 -385 -388 -390 -392 -394 -396 -397 -554 0
348 -555 0
356 -555 0
359 -555 0
362 -555 0
365 -555 0
368 -555 0
371 -555 0
374 -555 0
377 -555 0
380 -555 0
382 -555 0
385 -555 0
388 -555 0
390 -555 0
392 -555 0
394 -555 0
396 -555 0
397 -555 0
554 -555 0
347 95 -348 0
348 -347 0
348 -95 0
346 -347 -73 0
73 347 0
347 -346 0
346 63 62 61 60 59 58 57 56 0
-63 -346 0
-62 -346 0
-61 -346 0
-60 -346 0
-59 -346 0
-58 -346 0
-57 -346 0
-56 -346 0
350 355 -356 0
356 -350 0
356 -355 0
349 -350 -72 0
72 350 0
350 -349 0
349 63 62 61 60 59 58 57 56 0
-63 -349 0
-62 -349 0
-61 -349 0
-60 -349 0
-59 -349 0
-58 -349 0
-57 -349 0
-56 -349 0
355 -92 -351 -352 -78 -353 -354 -83 0
92 -355 0
351 -355 0
352 -355 0
78 -355 0
353 -355 0
354 -355 0
83 -355 0
81 86 -351 0
351 -81 0
351 -86 0
80 87 -352 0
352 -80 0
352 -87 0
76 85 -353 0
353 -76 0
353 -85 0
77 88 -354 0
354 -77 0
354 -88 0
358 89 95 -359 0
359 -358 0
359 -89 0
359 -95 0
357 -358 -71 0
71 358 0
358 -357 0
357 63 62 61 60 59 58 57 56 0
-63 -357 0
-62 -357 0
-61 -357 0
-60 -357 0
-59 -357 0
-58 -357 0
-57 -357 0
-56 -357 0
361 77 95 -362 0
362 -361 0
362 -77 0
362 -95 0
360 -361 -70 0
70 361 0
361 -360 0
360 63 62 61 60 59 58 57 56 0
-63 -360 0
-62 -360 0
-61 -360 0
-60 -360 0
-59 -360 0
-58 -360 0
-57 -360 0
-56 -360 0
364 94 -365 0
365 -364 0
365 -94 0
363 -364 -69 0
69 364 0
364 -363 0
363 63 62 61 60 59 58 57 56 0
-63 -363 0
-62 -363 0
-61 -363 0
-60 -363 0
-59 -363 0
-58 -363 0
-57 -363 0
-56 -363 0
367 93 -368 0
368 -367 0
368 -93 0
366 -367 -68 0
68 367 0
367 -366 0
366 63 62 61 60 59 58 57 56 0
-63 -366 0
-62 -366 0
-61 -366 0
-60 -366 0
-59 -366 0
-58 -366 0
-57 -366 0
-56 -366 0
370 91 -371 0
371 -370 0
371 -91 0
369 -370 -67 0
67 370 0
370 -369 0
369 63 62 61 60 59 58 57 56 0
-63 -369 0
-62 -369 0
-61 -369 0
-60 -369 0
-59 -369 0
-58 -369 0
-57 -369 0
-56 -369 0
373 90 -374 0
374 -373 0
374 -90 0
372 -373 -66 0
66 373 0
373 -372 0
372 63 62 61 60 59 58 57 56 0
-63 -372 0
-62 -372 0
-61 -372 0
-60 -372 0
-59 -372 0
-58 -372 0
-57 -372 0
-56 -372 0
376 84 -377 0
377 -376 0
377 -84 0
375 -376 -65 0
65 376 0
376 -375 0
375 63 62 61 60 59 58 57 56 0
-63 -375 0
-62 -375 0
-61 -375 0
-60 -375 0
-59 -375 0
-58 -375 0
-57 -375 0
-56 -375 0
379 82 -380 0
380 -379 0
380 -82 0
378 -379 -64 0
64 379 0
379 -378 0
378 63 62 61 60 59 58 57 56 0
-63 -378 0
-62 -378 0
-61 -378 0
-60 -378 0
-59 -378 0
-58 -378 0
-57 -378 0
-56 -378 0
381 95 -382 0
382 -381 0
382 -95 0
145 146 -381 -144 -147 0
144 381 0
381 -145 0
381 -146 0
147 381 0
383 384 -385 0
385 -383 0
385 -384 0
144 146 -383 -145 -147 0
383 -144 0
145 383 0
383 -146 0
147 383 0
384 -93 -94 0
93 -384 0
94 -384 0
386 387 -388 0
388 -386 0
388 -387 0
146 -386 -144 -145 -147 0
144 386 0
145 386 0
386 -146 0
147 386 0
387 -82 -94 0
82 -387 0
94 -387 0
389 94 95 -390 0
390 -389 0
390 -94 0
390 -95 0
144 145 -389 -146 -147 0
389 -144 0
389 -145 0
146 389 0
147 389 0
391 94 -392 0
392 -391 0
392 -94 0
145 -391 -144 -146 -147 0
144 391 0
391 -145 0
146 391 0
147 391 0
393 89 -394 0
394 -393 0
394 -89 0
144 -393 -145 -146 -147 0
393 -144 0
145 393 0
146 393 0
147 393 0
395 79 -396 0
396 -395 0
396 -79 0
-395 -144 -145 -146 -147 0
144 395 0
145 395 0
146 395 0
147 395 0
-397 -94 -95 0
94 397 0
95 397 0
406 553 -554 0
554 -406 0
554 -553 0
406 -398 -399 -400 -401 -402 -403 -404 -405 0
398 -406 0
399 -406 0
400 -406 0
401 -406 0
402 -406 0
403 -406 0
404 -406 0
405 -406 0
148 149 150 -398 -83 -151 0
83 398 0
398 -148 0
398 -149 0
398 -150 0
151 398 0
149 150 -399 -82 -148 -151 0
82 399 0
148 399 0
399 -149 0
399 -150 0
151 399 0
148 150 -400 -81 -149 -151 0
81 400 0
400 -148 0
149 400 0
400 -150 0
151 400 0
150 -401 -80 -148 -149 -151 0
80 401 0
148 401 0
149 401 0
401 -150 0
151 401 0
148 149 -402 -79 -150 -151 0
79 402 0
402 -148 0
402 -149 0
150 402 0
151 402 0
149 -403 -78 -148 -150 -151 0
78 403 0
148 403 0
403 -149 0
150 403 0
151 403 0
148 -404 -77 -149 -150 -151 0
77 404 0
404 -148 0
149 404 0
150 404 0
151 404 0
-405 -76 -148 -149 -150 -151 0
76 405 0
148 405 0
149 405 0
150 405 0
151 405 0
553 -409 -417 -420 -423 -426 -429 -432 -435 -438 -441 -443 -446 -449 -452 -454 -456 -458 -459 -552 0
409 -553 0
417 -553 0
420 -553 0
423 -553 0
426 -553 0
429 -553 0
432 -553 0
435 -553 0
438 -553 0
441 -553 0
443 -553 0
446 -553 0
449 -553 0
452 -553 0
454 -553 0
456 -553 0
458 -553 0
459 -553 0
552 -553 0
408 114 -409 0
409 -408 0
409 -114 0
407 -408 -93 0
93 408 0
408 -407 0
407 83 82 81 80 79 78 77 76 0
-83 -407 0
-82 -407 0
-81 -407 0
-80 -407 0
-79 -407 0
-78 -407 0
-77 -407 0
-76 -407 0
411 416 -417 0
417 -411 0
417 -416 0
410 -411 -92 0
92 411 0
411 -410 0
410 83 82 81 80 79 78 77 76 0
-83 -410 0
-82 -410 0
-81 -410 0
-80 -410 0
-79 -410 0
-78 -410 0
-77 -410 0
-76 -410 0
416 -412 -413 -99 -414 -415 -103 0
412 -416 0
413 -416 0
99 -416 0
414 -416 0
415 -416 0
103 -416 0
101 106 -412 0
412 -101 0
412 -106 0
100 107 -413 0
413 -100 0
413 -107 0
96 105 -414 0
414 -96 0
414 -105 0
98 108 -415 0
415 -98 0
415 -108 0
419 109 114 -420 0
420 -419 0
420 -109 0
420 -114 0
418 -419 -91 0
91 419 0
419 -418 0
418 83 82 81 80 79 78 77 76 0
-83 -418 0
-82 -418 0
-81 -418 0
-80 -418 0
-79 -418 0
-78 -418 0
-77 -418 0
-76 -418 0
422 98 114 -423 0
423 -422 0
423 -98 0
423 -114 0
421 -422 -90 0
90 422 0
422 -421 0
421 83 82 81 80 79 78 77 76 0
-83 -421 0
-82 -421 0
-81 -421 0
-80 -421 0
-79 -421 0
-78 -421 0
-77 -421 0
-76 -421 0
425 113 -426 0
426 -425 0
426 -113 0
424 -425 -89 0
89 425 0
425 -424 0
424 83 82 81 80 79 78 77 76 0
-83 -424 0
-82 -424 0
-81 -424 0
-80 -424 0
-79 -424 0
-78 -424 0
-77 -424 0
-76 -424 0
428 112 -429 0
429 -428 0
429 -112 0
427 -428 -88 0
88 428 0
428 -427 0
427 83 82 81 80 79 78 77 76 0
-83 -427 0
-82 -427 0
-81 -427 0
-80 -427 0
-79 -427 0
-78 -427 0
-77 -427 0
-76 -427 0
431 111 -432 0
432 -431 0
432 -111 0
430 -431 -87 0
87 431 0
431 -430 0
430 83 82 81 80 79 78 77 76 0
-83 -430 0
-82 -430 0
-81 -430 0
-80 -430 0
-79 -430 0
-78 -430 0
-77 -430 0
-76 -430 0
434 110 -435 0
435 -434 0
435 -110 0
433 -434 -86 0
86 434 0
434 -433 0
433 83 82 81 80 79 78 77 76 0
-83 -433 0
-82 -433 0
-81 -433 0
-80 -433 0
-79 -433 0
-78 -433 0
-77 -433 0
-76 -433 0
437 104 -438 0
438 -437 0
438 -104 0
436 -437 -85 0
85 437 0
437 -436 0
436 83 82 81 80 79 78 77 76 0
-83 -436 0
-82 -436 0
-81 -436 0
-80 -436 0
-79 -436 0
-78 -436 0
-77 -436 0
-76 -436 0
440 102 -441 0
441 -440 0
441 -102 0
439 -440 -84 0
84 440 0
440 -439 0
439 83 82 81 80 79 78 77 76 0
-83 -439 0
-82 -439 0
-81 -439 0
-80 -439 0
-79 -439 0
-78 -439 0
-77 -439 0
-76 -439 0
442 114 -443 0
443 -442 0
443 -114 0
149 150 -442 -148 -151 0
148 442 0
442 -149 0
442 -150 0
151 442 0
444 445 -446 0
446 -444 0
446 -445 0
148 150 -444 -149 -151 0
444 -148 0
149 444 0
444 -150 0
151 444 0
445 -112 -113 0
112 -445 0
113 -445 0
447 448 -449 0
449 -447 0
449 -448 0
150 -447 -148 -149 -151 0
148 447 0
149 447 0
447 -150 0
151 447 0
448 -102 -113 0
102 -448 0
113 -448 0
450 451 -452 0
452 -450 0
452 -451 0
148 149 -450 -150 -151 0
450 -148 0
450 -149 0
150 450 0
151 450 0
451 -98 -97 0
98 -451 0
97 -451 0
453 113 114 -454 0
454 -453 0
454 -113 0
454 -114 0
149 -453 -148 -150 -151 0
148 453 0
453 -149 0
150 453 0
151 453 0
455 113 -456 0
456 -455 0
456 -113 0
148 -455 -149 -150 -151 0
455 -148 0
149 455 0
150 455 0
151 455 0
457 109 -458 0
458 -457 0
458 -109 0
-457 -148 -149 -150 -151 0
148 457 0
149 457 0
150 457 0
151 457 0
-459 -113 -114 0
113 459 0
114 459 0
468 551 -552 0
552 -468 0
552 -551 0
468 -460 -461 -462 -463 -464 -465 -466 -467 0
460 -468 0
461 -468 0
462 -468 0
463 -468 0
464 -468 0
465 -468 0
466 -468 0
467 -468 0
152 153 154 -460 -103 -155 0
103 460 0
460 -152 0
460 -153 0
460 -154 0
155 460 0
153 154 -461 -102 -152 -155 0
102 461 0
152 461 0
461 -153 0
461 -154 0
155 461 0
152 154 -462 -101 -153 -155 0
101 462 0
462 -152 0
153 462 0
462 -154 0
155 462 0
154 -463 -100 -152 -153 -155 0
100 463 0
152 463 0
153 463 0
463 -154 0
155 463 0
152 153 -464 -99 -154 -155 0
99 464 0
464 -152 0
464 -153 0
154 464 0
155 464 0
153 -465 -98 -152 -154 -155 0
98 465 0
152 465 0
465 -153 0
154 465 0
155 465 0
152 -466 -97 -153 -154 -155 0
97 466 0
466 -152 0
153 466 0
154 466 0
155 466 0
-467 -96 -152 -153 -154 -155 0
96 467 0
152 467 0
153 467 0
154 467 0
155 467 0
551 -471 -474 -477 -480 -483 -486 -489 -492 -495 -497 -500 -503 -505 -507 -509 -511 -512 -550 0
471 -551 0
474 -551 0
477 -551 0
480 -551 0
483 -551 0
486 -551 0
489 -551 0
492 -551 0
495 -551 0
497 -551 0
500 -551 0
503 -551 0
505 -551 0
507 -551 0
509 -551 0
511 -551 0
512 -551 0
550 -551 0
470 123 -471 0
471 -470 0
471 -123 0
469 -470 -112 0
112 470 0
470 -469 0
469 103 102 101 100 99 98 97 96 0
-103 -469 0
-102 -469 0
-101 -469 0
-100 -469 0
-99 -469 0
-98 -469 0
-97 -469 0
-96 -469 0
473 118 123 -474 0
474 -473 0
474 -118 0
474 -123 0
472 -473 -111 0
111 473 0
473 -472 0
472 103 102 101 100 99 98 97 96 0
-103 -472 0
-102 -472 0
-101 -472 0
-100 -472 0
-99 -472 0
-98 -472 0
-97 -472 0
-96 -472 0
476 115 123 -477 0
477 -476 0
477 -115 0
477 -123 0
475 -476 -110 0
110 476 0
476 -475 0
475 103 102 101 100 99 98 97 96 0
-103 -475 0
-102 -475 0
-101 -475 0
-100 -475 0
-99 -475 0
-98 -475 0
-97 -475 0
-96 -475 0
479 122 -480 0
480 -479 0
480 -122 0
478 -479 -109 0
109 479 0
479 -478 0
478 103 102 101 100 99 98 97 96 0
-103 -478 0
-102 -478 0
-101 -478 0
-100 -478 0
-99 -478 0
-98 -478 0
-97 -478 0
-96 -478 0
482 121 -483 0
483 -482 0
483 -121 0
481 -482 -108 0
108 482 0
482 -481 0
481 103 102 101 100 99 98 97 96 0
-103 -481 0
-102 -481 0
-101 -481 0
-100 -481 0
-99 -481 0
-98 -481 0
-97 -481 0
-96 -481 0
485 120 -486 0
486 -485 0
486 -120 0
484 -485 -107 0
107 485 0
485 -484 0
484 103 102 101 100 99 98 97 96 0
-103 -484 0
-102 -484 0
-101 -484 0
-100 -484 0
-99 -484 0
-98 -484 0
-97 -484 0
-96 -484 0
488 119 -489 0
489 -488 0
489 -119 0
487 -488 -106 0
106 488 0
488 -487 0
487 103 102 101 100 99 98 97 96 0
-103 -487 0
-102 -487 0
-101 -487 0
-100 -487 0
-99 -487 0
-98 -487 0
-97 -487 0
-96 -487 0
491 117 -492 0
492 -491 0
492 -117 0
490 -491 -105 0
105 491 0
491 -490 0
490 103 102 101 100 99 98 97 96 0
-103 -490 0
-102 -490 0
-101 -490 0
-100 -490 0
-99 -490 0
-98 -490 0
-97 -490 0
-96 -490 0
494 116 -495 0
495 -494 0
495 -116 0
493 -494 -104 0
104 494 0
494 -493 0
493 103 102 101 100 99 98 97 96 0
-103 -493 0
-102 -493 0
-101 -493 0
-100 -493 0
-99 -493 0
-98 -493 0
-97 -493 0
-96 -493 0
496 123 -497 0
497 -496 0
497 -123 0
153 154 -496 -152 -155 0
152 496 0
496 -153 0
496 -154 0
155 496 0
498 499 -500 0
500 -498 0
500 -499 0
152 154 -498 -153 -155 0
498 -152 0
153 498 0
498 -154 0
155 498 0
499 -121 -122 0
121 -499 0
122 -499 0
501 502 -503 0
503 -501 0
503 -502 0
154 -501 -152 -153 -155 0
152 501 0
153 501 0
501 -154 0
155 501 0
502 -116 -122 0
116 -502 0
122 -502 0
504 122 123 -505 0
505 -504 0
505 -122 0
505 -123 0
152 153 -504 -154 -155 0
504 -152 0
504 -153 0
154 504 0
155 504 0
506 122 -507 0
507 -506 0
507 -122 0
153 -506 -152 -154 -155 0
152 506 0
506 -153 0
154 506 0
155 506 0
508 121 -509 0
509 -508 0
509 -121 0
152 -508 -153 -154 -155 0
508 -152 0
153 508 0
154 508 0
155 508 0
510 118 -511 0
511 -510 0
511 -118 0
-510 -152 -153 -154 -155 0
152 510 0
153 510 0
154 510 0
155 510 0
-512 -122 -123 0
122 512 0
123 512 0
515 549 -550 0
550 -515 0
550 -549 0
515 -513 -514 0
513 -515 0
514 -515 0
156 -513 -116 -157 0
116 513 0
513 -156 0
157 513 0
-514 -115 -156 -157 0
115 514 0
156 514 0
157 514 0
549 -518 -521 -524 -527 -530 -532 -534 -535 -548 0
518 -549 0
521 -549 0
524 -549 0
527 -549 0
530 -549 0
532 -549 0
534 -549 0
535 -549 0
548 -549 0
517 128 -518 0
518 -517 0
518 -128 0
516 -517 -121 0
121 517 0
517 -516 0
516 116 115 0
-116 -516 0
-115 -516 0
520 126 128 -521 0
521 -520 0
521 -126 0
521 -128 0
519 -520 -120 0
120 520 0
520 -519 0
519 116 115 0
-116 -519 0
-115 -519 0
523 124 128 -524 0
524 -523 0
524 -124 0
524 -128 0
522 -523 -119 0
119 523 0
523 -522 0
522 116 115 0
-116 -522 0
-115 -522 0
526 127 -527 0
527 -526 0
527 -127 0
525 -526 -118 0
118 526 0
526 -525 0
525 116 115 0
-116 -525 0
-115 -525 0
529 125 -530 0
530 -529 0
530 -125 0
528 -529 -117 0
117 529 0
529 -528 0
528 116 115 0
-116 -528 0
-115 -528 0
531 128 -532 0
532 -531 0
532 -128 0
156 -531 -157 0
531 -156 0
157 531 0
533 127 -534 0
534 -533 0
534 -127 0
-533 -156 -157 0
156 533 0
157 533 0
-535 -127 -128 0
127 535 0
128 535 0
538 547 -548 0
548 -538 0
548 -547 0
538 -536 -537 0
536 -538 0
537 -538 0
158 -536 -125 -159 0
125 536 0
536 -158 0
159 536 0
-537 -124 -158 -159 0
124 537 0
158 537 0
159 537 0
547 -539 -542 -544 -546 0
539 -547 0
542 -547 0
544 -547 0
546 -547 0
-539 -129 -130 0
129 539 0
130 539 0
541 129 -542 0
542 -541 0
542 -129 0
540 -541 -126 0
126 541 0
541 -540 0
540 125 124 0
-125 -540 0
-124 -540 0
543 130 -544 0
544 -543 0
544 -130 0
158 -543 -159 0
543 -158 0
159 543 0
545 129 -546 0
546 -545 0
546 -129 0
-545 -158 -159 0
158 545 0
159 545 0
